c This is an instance of the exact track of PACE 2020 Challenge, see https://pacechallenge.org/2020/ 
c TYPE: generated 
c ORIGIN: Python networkx package 
c DESCRIPTION: A random cubic graph generated using random_regular_graph function from Python’s networkx package 
p tdp 60 90
1 2
1 11
1 24
2 18
2 29
3 4
3 54
3 36
4 24
4 33
5 6
5 25
5 45
6 59
6 31
7 8
7 34
7 42
8 32
8 23
9 10
9 13
9 35
10 17
10 41
11 12
11 37
12 29
12 15
13 14
13 55
14 18
14 17
15 16
15 31
16 36
16 49
17 43
18 19
19 34
19 46
20 21
20 35
20 36
21 56
21 53
22 23
22 43
22 25
23 30
24 42
25 26
26 30
26 49
27 28
27 33
27 29
28 39
28 48
30 53
31 40
32 40
32 48
33 59
34 39
35 58
37 38
37 55
38 45
38 47
39 55
40 51
41 44
41 52
42 60
43 51
44 50
44 58
45 46
46 52
47 48
47 57
49 58
50 54
50 57
51 56
52 53
54 60
56 60
57 59
